
Gurobi 11.0.2 (win64) logging started Wed Aug  7 20:49:10 2024

Set parameter LogFile to value "D:\Documenti\Scuola\Laurea magistrale unibs\laurea-unibs-mkfsp\output\2024-08-07T17_25_17.381079\logs\instance09_bucket3.log"
Set parameter TimeLimit to value 100
Set parameter MIPGap to value 0
Gurobi Optimizer version 11.0.2 build v11.0.2rc0 (win64 - Windows 10.0 (19045.2))

CPU model: Intel(R) Core(TM) i5-4670 CPU @ 3.40GHz, instruction set [SSE2|AVX|AVX2]
Thread count: 4 physical cores, 4 logical processors, using up to 4 threads

Optimize a model with 8517 rows, 44263 columns and 1243222 nonzeros
Model fingerprint: 0x39e09dd9
Variable types: 0 continuous, 44263 integer (43919 binary)
Coefficient statistics:
  Matrix range     [1e+00, 9e+03]
  Objective range  [6e+02, 9e+03]
  Bounds range     [1e+00, 1e+00]
  RHS range        [1e+00, 2e+06]
Presolve time: 2.87s
Presolved: 8517 rows, 44263 columns, 1243222 nonzeros
Variable types: 0 continuous, 44263 integer (43919 binary)
Deterministic concurrent LP optimizer: primal simplex, dual simplex, and barrier
Showing barrier log only...

Root barrier log...

Ordering time: 0.13s

Barrier statistics:
 AA' NZ     : 1.328e+06
 Factor NZ  : 1.453e+06 (roughly 30 MB of memory)
 Factor Ops : 6.618e+08 (less than 1 second per iteration)
 Threads    : 1

                  Objective                Residual
Iter       Primal          Dual         Primal    Dual     Compl     Time
   0   1.80495471e+08  2.01256952e+08  9.11e+06 0.00e+00  1.03e+06     5s
   1   4.42987509e+07  2.07134801e+08  2.05e+06 4.55e-13  2.48e+05     5s
   2   2.22318827e+06  1.96690493e+08  2.16e+04 6.54e-13  5.01e+03     5s
   3   1.81581137e+06  7.06773245e+07  1.25e+03 7.39e-13  9.61e+02     5s
   4   1.79496540e+06  9.83767086e+06  2.47e+00 6.61e-13  1.02e+02     5s
   5   1.84977934e+06  2.58732590e+06  1.25e+00 5.06e-14  9.34e+00     6s
   6   1.91071014e+06  2.05673241e+06  2.17e-01 2.84e-14  1.85e+00     6s
   7   1.92490456e+06  1.95866442e+06  4.30e-02 3.02e-14  4.27e-01     6s
   8   1.92883707e+06  1.93291701e+06  5.23e-03 5.33e-14  5.16e-02     6s
   9   1.92962864e+06  1.92983293e+06  6.25e-07 4.62e-14  2.59e-03     7s
  10   1.92964593e+06  1.92964936e+06  3.26e-10 2.85e-14  4.34e-05     7s
  11   1.92964689e+06  1.92964700e+06  1.94e-12 3.55e-14  1.33e-06     7s
  12   1.92964691e+06  1.92964694e+06  6.09e-08 4.44e-14  3.67e-07     7s
  13   1.92964693e+06  1.92964693e+06  6.52e-08 4.62e-14  7.06e-09     8s

Barrier solved model in 13 iterations and 7.62 seconds (5.49 work units)
Optimal objective 1.92964693e+06

  Building initial crossover basis                                10s

Root crossover log...

     633 DPushes remaining with DInf 0.0000000e+00                12s
       0 DPushes remaining with DInf 0.0000000e+00                12s

   35325 PPushes remaining with PInf 0.0000000e+00                12s
   27506 PPushes remaining with PInf 0.0000000e+00                15s
   18196 PPushes remaining with PInf 0.0000000e+00                20s
Concurrent spin time: 2.35s (can be avoided by choosing Method=3)

Solved with dual simplex

Root simplex log...

Iteration    Objective       Primal Inf.    Dual Inf.      Time
   10156    1.9296469e+06   0.000000e+00   0.000000e+00     24s

Root relaxation: objective 1.929647e+06, 10156 iterations, 20.95 seconds (16.61 work units)
Total elapsed time = 52.23s (DegenMoves)
Total elapsed time = 79.90s (DegenMoves)

    Nodes    |    Current Node    |     Objective Bounds      |     Work
 Expl Unexpl |  Obj  Depth IntInf | Incumbent    BestBd   Gap | It/Node Time

     0     0 1929646.93    0 2766          - 1929646.93      -     -  100s

Explored 1 nodes (85481 simplex iterations) in 100.02 seconds (110.18 work units)
Thread count was 4 (of 4 available processors)

Solution count 0

Time limit reached
Best objective -, best bound 1.929646931501e+06, gap -
